
Gurobi 10.0.0 (win64, gurobi_cl) logging started Fri Mar 31 13:06:01 2023

Set parameter LogFile to value "gurobi.log"
Using license file C:\Users\GEO\gurobi.lic

Gurobi 10.0.0 (win64, gurobi_cl) logging started Fri Mar 31 13:08:32 2023

Set parameter LogFile to value "gurobi.log"
Using license file C:\Users\GEO\gurobi.lic

Gurobi 10.0.0 (win64, gurobi_cl) logging started Fri Mar 31 13:10:52 2023

Set parameter LogFile to value "gurobi.log"
Using license file C:\Users\GEO\gurobi.lic

Gurobi 10.0.0 (win64, gurobi_cl) logging started Fri Mar 31 13:12:41 2023

Set parameter LogFile to value "gurobi.log"
Using license file C:\Users\GEO\gurobi.lic

Gurobi 10.0.0 (win64, gurobi_cl) logging started Fri Mar 31 13:13:58 2023

Set parameter LogFile to value "gurobi.log"
Using license file C:\Users\GEO\gurobi.lic

Gurobi 10.0.0 (win64, gurobi_cl) logging started Fri Mar 31 13:38:39 2023

Set parameter LogFile to value "gurobi.log"
Using license file C:\Users\GEO\gurobi.lic

Gurobi 10.0.0 (win64, gurobi_cl) logging started Fri Mar 31 13:40:08 2023

Set parameter LogFile to value "gurobi.log"
Using license file C:\Users\GEO\gurobi.lic

Gurobi 10.0.0 (win64, gurobi_cl) logging started Fri Mar 31 13:48:25 2023

Set parameter LogFile to value "gurobi.log"
Using license file C:\Users\GEO\gurobi.lic

Gurobi 10.0.0 (win64, gurobi_cl) logging started Fri Mar 31 13:48:36 2023

Set parameter LogFile to value "gurobi.log"
Using license file C:\Users\GEO\gurobi.lic

Gurobi 10.0.0 (win64, gurobi_cl) logging started Fri Mar 31 13:49:13 2023

Set parameter LogFile to value "gurobi.log"
Using license file C:\Users\GEO\gurobi.lic

Gurobi 10.0.0 (win64, gurobi_cl) logging started Fri Mar 31 13:50:37 2023

Set parameter LogFile to value "gurobi.log"
Using license file C:\Users\GEO\gurobi.lic

Gurobi 10.0.0 (win64, gurobi_cl) logging started Fri Mar 31 13:50:43 2023

Set parameter LogFile to value "gurobi.log"
Using license file C:\Users\GEO\gurobi.lic

Gurobi 10.0.0 (win64, gurobi_cl) logging started Fri Mar 31 13:51:40 2023

Set parameter LogFile to value "gurobi.log"
Using license file C:\Users\GEO\gurobi.lic

Gurobi 10.0.0 (win64, gurobi_cl) logging started Fri Mar 31 13:52:14 2023

Set parameter LogFile to value "gurobi.log"
Using license file C:\Users\GEO\gurobi.lic

Gurobi 10.0.0 (win64, gurobi_cl) logging started Fri Mar 31 13:54:20 2023

Set parameter LogFile to value "gurobi.log"
Using license file C:\Users\GEO\gurobi.lic

Gurobi 10.0.0 (win64, gurobi_cl) logging started Fri Mar 31 14:11:10 2023

Set parameter LogFile to value "gurobi.log"
Using license file C:\Users\GEO\gurobi.lic

Gurobi 10.0.0 (win64, gurobi_cl) logging started Fri Mar 31 14:11:33 2023

Set parameter LogFile to value "gurobi.log"
Using license file C:\Users\GEO\gurobi.lic

Gurobi 10.0.0 (win64, gurobi_cl) logging started Fri Mar 31 14:11:50 2023

Set parameter LogFile to value "gurobi.log"
Using license file C:\Users\GEO\gurobi.lic

Gurobi 10.0.0 (win64, gurobi_cl) logging started Fri Mar 31 14:14:05 2023

Set parameter LogFile to value "gurobi.log"
Using license file C:\Users\GEO\gurobi.lic

Gurobi 10.0.0 (win64, gurobi_cl) logging started Fri Mar 31 14:14:25 2023

Set parameter LogFile to value "gurobi.log"
Using license file C:\Users\GEO\gurobi.lic

Gurobi 10.0.0 (win64, gurobi_cl) logging started Fri Mar 31 14:15:17 2023

Set parameter LogFile to value "gurobi.log"
Using license file C:\Users\GEO\gurobi.lic

Gurobi 10.0.0 (win64, gurobi_cl) logging started Fri Mar 31 14:15:25 2023

Set parameter LogFile to value "gurobi.log"
Using license file C:\Users\GEO\gurobi.lic

Gurobi 10.0.0 (win64, gurobi_cl) logging started Fri Mar 31 14:15:40 2023

Set parameter LogFile to value "gurobi.log"
Using license file C:\Users\GEO\gurobi.lic
